c Path planning problem for ProbSAT
c Generated by gen_cnf.py
p cnf 288 479
1 2 3 4 5 6 7 8 9 10 11 12 0
13 14 15 16 17 18 19 20 21 22 23 24 0
25 26 27 28 29 30 31 32 33 34 35 36 0
37 38 39 40 41 42 43 44 45 46 47 48 0
49 50 51 52 53 54 55 56 57 58 59 60 0
61 62 63 64 65 66 67 68 69 70 71 72 0
73 74 75 76 77 78 79 80 81 82 83 84 0
85 86 87 88 89 90 91 92 93 94 95 96 0
97 98 99 100 101 102 103 104 105 106 107 108 0
109 110 111 112 113 114 115 116 117 118 119 120 0
121 122 123 124 125 126 127 128 129 130 131 132 0
133 134 135 136 137 138 139 140 141 142 143 144 0
145 146 147 148 149 150 151 152 153 154 155 156 0
157 158 159 160 161 162 163 164 165 166 167 168 0
169 170 171 172 173 174 175 176 177 178 179 180 0
181 182 183 184 185 186 187 188 189 190 191 192 0
193 194 195 196 197 198 199 200 201 202 203 204 0
205 206 207 208 209 210 211 212 213 214 215 216 0
217 218 219 220 221 222 223 224 225 226 227 228 0
229 230 231 232 233 234 235 236 237 238 239 240 0
241 242 243 244 245 246 247 248 249 250 251 252 0
253 254 255 256 257 258 259 260 261 262 263 264 0
265 266 267 268 269 270 271 272 273 274 275 276 0
277 278 279 280 281 282 283 284 285 286 287 288 0
-1 -145 0
-2 -146 0
-3 -147 0
-4 -148 0
-5 -149 0
-6 -150 0
-7 -151 0
-8 -152 0
-9 -153 0
-10 -154 0
-11 -155 0
-12 -156 0
-13 -157 0
-14 -158 0
-15 -159 0
-16 -160 0
-17 -161 0
-18 -162 0
-19 -163 0
-20 -164 0
-21 -165 0
-22 -166 0
-23 -167 0
-24 -168 0
-25 -169 0
-26 -170 0
-27 -171 0
-28 -172 0
-29 -173 0
-30 -174 0
-31 -175 0
-32 -176 0
-33 -177 0
-34 -178 0
-35 -179 0
-36 -180 0
-37 -181 0
-38 -182 0
-39 -183 0
-40 -184 0
-41 -185 0
-42 -186 0
-43 -187 0
-44 -188 0
-45 -189 0
-46 -190 0
-47 -191 0
-48 -192 0
-49 -193 0
-50 -194 0
-51 -195 0
-52 -196 0
-53 -197 0
-54 -198 0
-55 -199 0
-56 -200 0
-57 -201 0
-58 -202 0
-59 -203 0
-60 -204 0
-61 -205 0
-62 -206 0
-63 -207 0
-64 -208 0
-65 -209 0
-66 -210 0
-67 -211 0
-68 -212 0
-69 -213 0
-70 -214 0
-71 -215 0
-72 -216 0
-73 -217 0
-74 -218 0
-75 -219 0
-76 -220 0
-77 -221 0
-78 -222 0
-79 -223 0
-80 -224 0
-81 -225 0
-82 -226 0
-83 -227 0
-84 -228 0
-85 -229 0
-86 -230 0
-87 -231 0
-88 -232 0
-89 -233 0
-90 -234 0
-91 -235 0
-92 -236 0
-93 -237 0
-94 -238 0
-95 -239 0
-96 -240 0
-97 -241 0
-98 -242 0
-99 -243 0
-100 -244 0
-101 -245 0
-102 -246 0
-103 -247 0
-104 -248 0
-105 -249 0
-106 -250 0
-107 -251 0
-108 -252 0
-109 -253 0
-110 -254 0
-111 -255 0
-112 -256 0
-113 -257 0
-114 -258 0
-115 -259 0
-116 -260 0
-117 -261 0
-118 -262 0
-119 -263 0
-120 -264 0
-121 -265 0
-122 -266 0
-123 -267 0
-124 -268 0
-125 -269 0
-126 -270 0
-127 -271 0
-128 -272 0
-129 -273 0
-130 -274 0
-131 -275 0
-132 -276 0
-133 -277 0
-134 -278 0
-135 -279 0
-136 -280 0
-137 -281 0
-138 -282 0
-139 -283 0
-140 -284 0
-141 -285 0
-142 -286 0
-143 -287 0
-144 -288 0
-1 13 17 14 0
-2 14 18 15 13 0
-3 15 19 16 14 0
-4 16 20 15 0
-5 17 21 13 18 0
-6 18 22 14 19 17 0
-7 19 23 15 20 18 0
-8 20 24 16 19 0
-9 21 17 22 0
-10 22 18 23 21 0
-11 23 19 24 22 0
-12 24 20 23 0
-13 25 29 26 0
-14 26 30 27 25 0
-15 27 31 28 26 0
-16 28 32 27 0
-17 29 33 25 30 0
-18 30 34 26 31 29 0
-19 31 35 27 32 30 0
-20 32 36 28 31 0
-21 33 29 34 0
-22 34 30 35 33 0
-23 35 31 36 34 0
-24 36 32 35 0
-25 37 41 38 0
-26 38 42 39 37 0
-27 39 43 40 38 0
-28 40 44 39 0
-29 41 45 37 42 0
-30 42 46 38 43 41 0
-31 43 47 39 44 42 0
-32 44 48 40 43 0
-33 45 41 46 0
-34 46 42 47 45 0
-35 47 43 48 46 0
-36 48 44 47 0
-37 49 53 50 0
-38 50 54 51 49 0
-39 51 55 52 50 0
-40 52 56 51 0
-41 53 57 49 54 0
-42 54 58 50 55 53 0
-43 55 59 51 56 54 0
-44 56 60 52 55 0
-45 57 53 58 0
-46 58 54 59 57 0
-47 59 55 60 58 0
-48 60 56 59 0
-49 61 65 62 0
-50 62 66 63 61 0
-51 63 67 64 62 0
-52 64 68 63 0
-53 65 69 61 66 0
-54 66 70 62 67 65 0
-55 67 71 63 68 66 0
-56 68 72 64 67 0
-57 69 65 70 0
-58 70 66 71 69 0
-59 71 67 72 70 0
-60 72 68 71 0
-61 73 77 74 0
-62 74 78 75 73 0
-63 75 79 76 74 0
-64 76 80 75 0
-65 77 81 73 78 0
-66 78 82 74 79 77 0
-67 79 83 75 80 78 0
-68 80 84 76 79 0
-69 81 77 82 0
-70 82 78 83 81 0
-71 83 79 84 82 0
-72 84 80 83 0
-73 85 89 86 0
-74 86 90 87 85 0
-75 87 91 88 86 0
-76 88 92 87 0
-77 89 93 85 90 0
-78 90 94 86 91 89 0
-79 91 95 87 92 90 0
-80 92 96 88 91 0
-81 93 89 94 0
-82 94 90 95 93 0
-83 95 91 96 94 0
-84 96 92 95 0
-85 97 101 98 0
-86 98 102 99 97 0
-87 99 103 100 98 0
-88 100 104 99 0
-89 101 105 97 102 0
-90 102 106 98 103 101 0
-91 103 107 99 104 102 0
-92 104 108 100 103 0
-93 105 101 106 0
-94 106 102 107 105 0
-95 107 103 108 106 0
-96 108 104 107 0
-97 109 113 110 0
-98 110 114 111 109 0
-99 111 115 112 110 0
-100 112 116 111 0
-101 113 117 109 114 0
-102 114 118 110 115 113 0
-103 115 119 111 116 114 0
-104 116 120 112 115 0
-105 117 113 118 0
-106 118 114 119 117 0
-107 119 115 120 118 0
-108 120 116 119 0
-109 121 125 122 0
-110 122 126 123 121 0
-111 123 127 124 122 0
-112 124 128 123 0
-113 125 129 121 126 0
-114 126 130 122 127 125 0
-115 127 131 123 128 126 0
-116 128 132 124 127 0
-117 129 125 130 0
-118 130 126 131 129 0
-119 131 127 132 130 0
-120 132 128 131 0
-121 133 137 134 0
-122 134 138 135 133 0
-123 135 139 136 134 0
-124 136 140 135 0
-125 137 141 133 138 0
-126 138 142 134 139 137 0
-127 139 143 135 140 138 0
-128 140 144 136 139 0
-129 141 137 142 0
-130 142 138 143 141 0
-131 143 139 144 142 0
-132 144 140 143 0
-145 157 161 158 0
-146 158 162 159 157 0
-147 159 163 160 158 0
-148 160 164 159 0
-149 161 165 157 162 0
-150 162 166 158 163 161 0
-151 163 167 159 164 162 0
-152 164 168 160 163 0
-153 165 161 166 0
-154 166 162 167 165 0
-155 167 163 168 166 0
-156 168 164 167 0
-157 169 173 170 0
-158 170 174 171 169 0
-159 171 175 172 170 0
-160 172 176 171 0
-161 173 177 169 174 0
-162 174 178 170 175 173 0
-163 175 179 171 176 174 0
-164 176 180 172 175 0
-165 177 173 178 0
-166 178 174 179 177 0
-167 179 175 180 178 0
-168 180 176 179 0
-169 181 185 182 0
-170 182 186 183 181 0
-171 183 187 184 182 0
-172 184 188 183 0
-173 185 189 181 186 0
-174 186 190 182 187 185 0
-175 187 191 183 188 186 0
-176 188 192 184 187 0
-177 189 185 190 0
-178 190 186 191 189 0
-179 191 187 192 190 0
-180 192 188 191 0
-181 193 197 194 0
-182 194 198 195 193 0
-183 195 199 196 194 0
-184 196 200 195 0
-185 197 201 193 198 0
-186 198 202 194 199 197 0
-187 199 203 195 200 198 0
-188 200 204 196 199 0
-189 201 197 202 0
-190 202 198 203 201 0
-191 203 199 204 202 0
-192 204 200 203 0
-193 205 209 206 0
-194 206 210 207 205 0
-195 207 211 208 206 0
-196 208 212 207 0
-197 209 213 205 210 0
-198 210 214 206 211 209 0
-199 211 215 207 212 210 0
-200 212 216 208 211 0
-201 213 209 214 0
-202 214 210 215 213 0
-203 215 211 216 214 0
-204 216 212 215 0
-205 217 221 218 0
-206 218 222 219 217 0
-207 219 223 220 218 0
-208 220 224 219 0
-209 221 225 217 222 0
-210 222 226 218 223 221 0
-211 223 227 219 224 222 0
-212 224 228 220 223 0
-213 225 221 226 0
-214 226 222 227 225 0
-215 227 223 228 226 0
-216 228 224 227 0
-217 229 233 230 0
-218 230 234 231 229 0
-219 231 235 232 230 0
-220 232 236 231 0
-221 233 237 229 234 0
-222 234 238 230 235 233 0
-223 235 239 231 236 234 0
-224 236 240 232 235 0
-225 237 233 238 0
-226 238 234 239 237 0
-227 239 235 240 238 0
-228 240 236 239 0
-229 241 245 242 0
-230 242 246 243 241 0
-231 243 247 244 242 0
-232 244 248 243 0
-233 245 249 241 246 0
-234 246 250 242 247 245 0
-235 247 251 243 248 246 0
-236 248 252 244 247 0
-237 249 245 250 0
-238 250 246 251 249 0
-239 251 247 252 250 0
-240 252 248 251 0
-241 253 257 254 0
-242 254 258 255 253 0
-243 255 259 256 254 0
-244 256 260 255 0
-245 257 261 253 258 0
-246 258 262 254 259 257 0
-247 259 263 255 260 258 0
-248 260 264 256 259 0
-249 261 257 262 0
-250 262 258 263 261 0
-251 263 259 264 262 0
-252 264 260 263 0
-253 265 269 266 0
-254 266 270 267 265 0
-255 267 271 268 266 0
-256 268 272 267 0
-257 269 273 265 270 0
-258 270 274 266 271 269 0
-259 271 275 267 272 270 0
-260 272 276 268 271 0
-261 273 269 274 0
-262 274 270 275 273 0
-263 275 271 276 274 0
-264 276 272 275 0
-265 277 281 278 0
-266 278 282 279 277 0
-267 279 283 280 278 0
-268 280 284 279 0
-269 281 285 277 282 0
-270 282 286 278 283 281 0
-271 283 287 279 284 282 0
-272 284 288 280 283 0
-273 285 281 286 0
-274 286 282 287 285 0
-275 287 283 288 286 0
-276 288 284 287 0
1 0
-2 0
-6 0
-10 0
-3 0
-7 0
-11 0
-4 0
-8 0
-12 0
149 0
-1 0
-5 0
-9 0
-2 0
-6 0
-10 0
-3 0
-7 0
-11 0
-4 0
-8 0
-12 0
144 0
-133 0
-137 0
-141 0
-134 0
-138 0
-142 0
-135 0
-139 0
-136 0
-140 0
-144 0
287 0
-133 0
-137 0
-141 0
-134 0
-138 0
-142 0
-135 0
-139 0
-136 0
-140 0
-144 0
